NAME: xqf131
COMMENT: Local search tour for xqf131 (646.4479722899991)
TYPE: TOUR
DIMENSION: 131
TOUR_SECTION: 1 6 16 15 14 12 5 13 18 25 17 19 26 27 28 29 30 20 31 32 21 33 34 52 51 50 49 48 47 55 54 46 45 53 74 64 68 75 77 78 81 82 87 88 92 94 99 109 115 119 116 128 127 126 113 108 107 106 105 100 101 102 93 89 98 112 123 130 121 118 114 124 125 131 129 122 117 120 110 111 103 104 97 96 95 90 91 61 73 72 80 86 85 84 83 79 76 71 67 63 66 70 69 65 62 56 57 58 59 60 44 43 24 42 41 40 39 38 37 36 35 22 23 11 4 10 9 3 2 8 7 -1
EOF